language ESSENCE' 1.0

letting jobs = 102
letting horizon = 794
letting resourcesRenew = 2
letting resourcesNonrenew = 2
letting resourceLimits = [27, 24, 286, 248]
letting successors = [[2, 3, 4, 5, 6, 7, 11, 14, 16], [29, 23, 22, 20, 17, 15, 13, 12], [24, 23, 18, 15, 9, 8], [27, 26, 24, 21, 19, 18, 10], [29, 23, 22, 15, 12], [29, 28, 24, 23, 22, 17, 15], [29, 28, 27, 26, 23, 22, 21, 18, 17], [35, 30, 28, 26, 25, 22, 19], [41, 37, 33, 31, 30, 29, 28, 27, 26, 25], [42, 35, 33, 32, 30, 28, 25, 23, 22], [33, 30, 26, 24, 22, 21], [42, 41, 28, 24, 18], [41, 34, 32, 31, 30, 27, 26, 25], [42, 40, 35, 30, 29, 28, 23], [41, 30, 27, 26, 21], [42, 41, 34, 33, 32, 31, 26, 25], [43, 40, 38, 36, 35, 34, 33, 32, 31], [38, 37, 35, 34, 33, 32, 31, 30], [43, 42, 40, 37, 34, 33, 29], [44, 40, 38, 35, 34, 32, 26], [44, 36, 34, 32, 25], [46, 43, 41, 40, 39, 34, 31], [52, 50, 49, 46, 44, 43, 39, 38, 37, 34], [43, 40, 39, 37, 31], [55, 51, 49, 48, 47, 46, 43, 40, 38], [52, 51, 50, 49, 48, 46, 45, 43, 39], [55, 51, 49, 46, 43, 42, 40], [52, 46, 39, 36, 34], [52, 51, 45, 32], [52, 49, 48, 39, 36], [58, 57, 55, 53, 51, 50, 49, 47, 44], [50, 48, 46, 39], [60, 58, 57, 51, 49, 48, 47, 45], [60, 58, 57, 55, 54, 51, 47, 45], [57, 55, 54, 52, 48, 45], [66, 60, 58, 57, 56, 53, 50, 47], [66, 60, 58, 57, 47, 45], [66, 64, 60, 59, 58, 57, 56, 54, 53], [66, 60, 57, 56, 55, 54, 47], [66, 58, 57, 52, 45], [58, 55, 54, 48, 47], [56, 52, 50, 47], [66, 64, 61, 60, 58, 53], [60, 48], [73, 64, 59, 56, 53], [64, 59, 58, 56, 53], [70, 64, 62, 61, 59], [62, 61, 59, 56], [64, 63, 54], [76, 71, 70, 68, 61, 59], [73, 66, 65, 64, 62, 56], [76, 75, 74, 70, 68, 65, 63, 60], [74, 71, 70, 68, 65, 63, 62], [76, 74, 71, 70, 69, 68, 61], [75, 68, 59], [78, 77, 75, 72, 71, 70, 69, 68, 67], [87, 81, 79, 78, 77, 75, 74, 72, 71, 69], [79, 77, 75, 63], [77, 74, 63], [87, 81, 78, 77, 72, 71, 69, 67], [79, 75, 73, 65], [87, 81, 78, 77, 76, 75, 67], [87, 81, 78, 72, 69, 67], [85, 72, 71, 69, 68], [86, 81, 77, 72], [88, 79, 77, 72], [100, 88, 86, 85, 83, 82, 80], [101, 81, 80, 79], [101, 100, 98, 88, 83, 82, 80], [101, 100, 99, 98, 87, 83, 80], [101, 100, 98, 88, 83, 80], [101, 100, 98, 82, 80], [99, 87, 81, 80], [101, 99, 97, 96, 95, 93, 89, 88, 85], [101, 100, 99, 98, 97, 96, 88, 84], [99, 98, 97, 88, 86, 84], [100, 97, 96, 90, 89, 85, 84], [100, 99, 98, 97, 96, 90, 84], [99, 98, 90, 86, 83], [97, 96, 90, 89, 84], [97, 88, 83], [99, 94, 93, 91, 90], [95, 94, 93, 89], [95, 94, 93, 92, 91], [98, 94, 92, 91], [96, 89], [96, 93, 91], [91, 90], [92, 91], [92], [102], [102], [102], [102], [102], [102], [102], [102], [102], [102], [102], []]
letting durations = [[0], [5, 8, 10], [1, 2, 6], [1, 2, 3], [1, 5, 9], [1, 2, 7], [6, 10, 10], [2, 6, 10], [7, 7, 8], [3, 4, 9], [4, 6, 8], [1, 6, 9], [1, 6, 10], [5, 6, 7], [1, 6, 10], [3, 4, 7], [2, 3, 4], [5, 6, 8], [4, 5, 6], [2, 4, 9], [1, 4, 8], [3, 5, 6], [2, 4, 8], [2, 6, 7], [9, 9, 10], [2, 4, 5], [3, 6, 7], [3, 4, 4], [3, 4, 8], [2, 2, 7], [6, 7, 8], [2, 3, 8], [2, 5, 10], [5, 6, 8], [4, 6, 10], [1, 8, 9], [1, 4, 4], [8, 9, 10], [5, 8, 9], [1, 2, 5], [1, 8, 9], [3, 8, 8], [3, 4, 8], [3, 8, 9], [6, 9, 10], [3, 4, 6], [3, 5, 10], [3, 6, 9], [2, 6, 10], [2, 7, 9], [1, 4, 8], [1, 2, 7], [5, 7, 7], [3, 5, 6], [6, 7, 10], [4, 9, 10], [3, 6, 9], [2, 7, 9], [2, 3, 8], [2, 3, 10], [1, 5, 10], [3, 9, 9], [2, 4, 8], [7, 8, 10], [4, 6, 8], [3, 6, 7], [3, 3, 3], [1, 2, 6], [2, 5, 5], [1, 7, 9], [3, 4, 5], [1, 2, 8], [2, 7, 10], [4, 5, 9], [1, 4, 8], [3, 5, 7], [1, 2, 3], [3, 4, 5], [4, 5, 9], [1, 2, 6], [7, 8, 10], [1, 7, 10], [1, 7, 10], [1, 4, 5], [2, 8, 10], [4, 4, 10], [5, 8, 9], [2, 4, 6], [5, 7, 8], [4, 8, 9], [2, 6, 8], [1, 6, 7], [2, 2, 4], [8, 9, 10], [2, 7, 9], [3, 3, 9], [2, 2, 8], [5, 6, 8], [6, 9, 10], [5, 6, 7], [6, 8, 9], [0]]
letting resourceUsage = [[[0, 0, 0, 0]], [[0, 3, 7, 0], [4, 0, 0, 7], [2, 0, 4, 0]], [[4, 0, 5, 0], [0, 4, 0, 6], [1, 0, 0, 1]], [[0, 4, 0, 7], [5, 0, 0, 3], [0, 4, 0, 3]], [[2, 0, 0, 8], [2, 0, 8, 0], [0, 2, 8, 0]], [[0, 1, 0, 7], [4, 0, 0, 7], [4, 0, 3, 0]], [[4, 0, 0, 10], [0, 3, 0, 7], [0, 3, 9, 0]], [[5, 0, 7, 0], [0, 2, 3, 0], [3, 0, 2, 0]], [[0, 5, 8, 0], [4, 0, 0, 6], [0, 4, 0, 5]], [[1, 0, 4, 0], [0, 3, 0, 7], [0, 2, 0, 6]], [[0, 2, 8, 0], [0, 1, 6, 0], [5, 0, 4, 0]], [[3, 0, 0, 4], [2, 0, 0, 3], [2, 0, 3, 0]], [[3, 0, 6, 0], [0, 3, 0, 7], [0, 1, 1, 0]], [[0, 4, 0, 5], [0, 2, 7, 0], [0, 1, 7, 0]], [[0, 4, 0, 6], [2, 0, 6, 0], [1, 0, 0, 6]], [[4, 0, 0, 4], [4, 0, 0, 3], [0, 2, 2, 0]], [[4, 0, 7, 0], [0, 1, 0, 7], [0, 1, 0, 3]], [[0, 4, 0, 7], [3, 0, 0, 6], [0, 4, 0, 5]], [[4, 0, 4, 0], [4, 0, 0, 7], [3, 0, 0, 3]], [[0, 1, 0, 6], [5, 0, 0, 4], [5, 0, 2, 0]], [[2, 0, 8, 0], [0, 1, 6, 0], [0, 1, 5, 0]], [[2, 0, 8, 0], [0, 4, 8, 0], [0, 3, 0, 2]], [[2, 0, 5, 0], [2, 0, 4, 0], [0, 2, 0, 1]], [[2, 0, 7, 0], [0, 3, 3, 0], [1, 0, 3, 0]], [[0, 3, 0, 7], [0, 3, 8, 0], [0, 2, 8, 0]], [[4, 0, 7, 0], [0, 4, 7, 0], [0, 4, 6, 0]], [[4, 0, 0, 7], [0, 1, 2, 0], [0, 1, 0, 5]], [[0, 1, 0, 9], [4, 0, 0, 9], [3, 0, 4, 0]], [[0, 3, 8, 0], [0, 2, 0, 3], [2, 0, 0, 3]], [[0, 2, 0, 5], [0, 1, 4, 0], [0, 1, 0, 2]], [[0, 3, 4, 0], [3, 0, 0, 4], [3, 0, 1, 0]], [[0, 5, 1, 0], [3, 0, 1, 0], [0, 3, 0, 4]], [[0, 1, 7, 0], [0, 1, 0, 2], [3, 0, 0, 2]], [[3, 0, 0, 3], [0, 2, 2, 0], [0, 2, 1, 0]], [[3, 0, 6, 0], [3, 0, 0, 5], [2, 0, 4, 0]], [[0, 3, 0, 8], [0, 3, 0, 7], [0, 1, 4, 0]], [[4, 0, 0, 7], [0, 2, 0, 3], [1, 0, 8, 0]], [[0, 2, 6, 0], [0, 2, 5, 0], [0, 2, 4, 0]], [[0, 4, 0, 9], [0, 2, 0, 7], [0, 1, 0, 3]], [[4, 0, 0, 2], [2, 0, 4, 0], [2, 0, 3, 0]], [[4, 0, 5, 0], [0, 2, 0, 5], [3, 0, 0, 1]], [[2, 0, 0, 10], [2, 0, 7, 0], [0, 3, 5, 0]], [[4, 0, 0, 6], [0, 3, 9, 0], [3, 0, 0, 4]], [[4, 0, 4, 0], [4, 0, 3, 0], [3, 0, 2, 0]], [[0, 4, 0, 5], [5, 0, 7, 0], [5, 0, 6, 0]], [[0, 3, 0, 8], [0, 3, 0, 6], [2, 0, 0, 5]], [[0, 3, 7, 0], [0, 3, 0, 7], [2, 0, 2, 0]], [[0, 3, 0, 7], [2, 0, 0, 5], [2, 0, 2, 0]], [[0, 5, 0, 4], [3, 0, 7, 0], [1, 0, 0, 1]], [[0, 4, 0, 10], [2, 0, 5, 0], [2, 0, 1, 0]], [[0, 3, 8, 0], [0, 3, 3, 0], [0, 3, 2, 0]], [[0, 5, 0, 4], [0, 4, 4, 0], [0, 4, 0, 2]], [[1, 0, 9, 0], [1, 0, 5, 0], [0, 5, 5, 0]], [[5, 0, 7, 0], [0, 5, 6, 0], [3, 0, 0, 3]], [[5, 0, 1, 0], [0, 1, 1, 0], [0, 1, 0, 3]], [[0, 5, 0, 6], [0, 4, 6, 0], [2, 0, 6, 0]], [[0, 3, 3, 0], [4, 0, 2, 0], [4, 0, 0, 3]], [[0, 3, 4, 0], [0, 2, 0, 8], [0, 2, 3, 0]], [[4, 0, 10, 0], [4, 0, 0, 5], [0, 3, 0, 3]], [[1, 0, 0, 8], [0, 1, 4, 0], [0, 1, 0, 6]], [[5, 0, 6, 0], [0, 2, 4, 0], [3, 0, 0, 2]], [[5, 0, 5, 0], [4, 0, 4, 0], [0, 1, 0, 2]], [[0, 3, 6, 0], [0, 3, 0, 3], [4, 0, 0, 2]], [[0, 1, 5, 0], [0, 1, 4, 0], [0, 1, 3, 0]], [[4, 0, 0, 4], [0, 1, 0, 3], [3, 0, 3, 0]], [[2, 0, 0, 7], [0, 5, 0, 5], [0, 5, 0, 4]], [[0, 5, 7, 0], [3, 0, 4, 0], [2, 0, 0, 9]], [[3, 0, 4, 0], [3, 0, 0, 2], [3, 0, 1, 0]], [[0, 2, 0, 8], [3, 0, 0, 8], [0, 1, 0, 8]], [[4, 0, 8, 0], [0, 3, 7, 0], [0, 3, 0, 8]], [[4, 0, 0, 5], [0, 2, 6, 0], [0, 1, 6, 0]], [[5, 0, 10, 0], [0, 5, 7, 0], [0, 5, 0, 2]], [[4, 0, 6, 0], [3, 0, 0, 6], [3, 0, 0, 5]], [[2, 0, 9, 0], [0, 2, 0, 6], [1, 0, 9, 0]], [[2, 0, 0, 7], [2, 0, 0, 6], [1, 0, 3, 0]], [[0, 5, 0, 7], [2, 0, 5, 0], [1, 0, 5, 0]], [[2, 0, 6, 0], [2, 0, 0, 6], [0, 2, 0, 6]], [[0, 2, 9, 0], [4, 0, 8, 0], [0, 2, 0, 1]], [[1, 0, 0, 6], [1, 0, 0, 5], [0, 1, 5, 0]], [[5, 0, 4, 0], [3, 0, 3, 0], [0, 2, 3, 0]], [[0, 4, 7, 0], [2, 0, 4, 0], [0, 4, 0, 4]], [[4, 0, 0, 3], [4, 0, 5, 0], [0, 2, 0, 1]], [[4, 0, 6, 0], [0, 2, 0, 2], [0, 1, 5, 0]], [[3, 0, 7, 0], [2, 0, 5, 0], [0, 1, 4, 0]], [[0, 2, 6, 0], [2, 0, 5, 0], [0, 1, 0, 3]], [[3, 0, 4, 0], [0, 3, 4, 0], [1, 0, 0, 4]], [[4, 0, 0, 6], [3, 0, 0, 6], [3, 0, 0, 3]], [[0, 4, 0, 6], [2, 0, 3, 0], [2, 0, 2, 0]], [[4, 0, 0, 7], [0, 2, 0, 4], [0, 1, 5, 0]], [[0, 5, 7, 0], [2, 0, 6, 0], [2, 0, 5, 0]], [[0, 4, 6, 0], [0, 3, 5, 0], [1, 0, 2, 0]], [[5, 0, 0, 4], [4, 0, 2, 0], [4, 0, 0, 2]], [[0, 2, 6, 0], [0, 2, 0, 8], [3, 0, 0, 8]], [[0, 4, 6, 0], [0, 3, 5, 0], [0, 3, 3, 0]], [[3, 0, 3, 0], [3, 0, 2, 0], [2, 0, 0, 4]], [[0, 4, 8, 0], [0, 4, 0, 9], [0, 4, 0, 7]], [[0, 2, 0, 5], [2, 0, 5, 0], [0, 1, 4, 0]], [[0, 3, 0, 7], [0, 2, 0, 4], [2, 0, 0, 2]], [[0, 5, 4, 0], [0, 3, 0, 3], [3, 0, 1, 0]], [[5, 0, 0, 2], [0, 2, 3, 0], [4, 0, 0, 1]], [[0, 3, 8, 0], [2, 0, 0, 3], [0, 2, 0, 3]], [[0, 0, 0, 0]]]
